CMD:
./solvers/bin/cadical --plain --no-reduce -t 1600 ./data/cnfs//qspiflash_dualflexpress_divthree-p007/qspiflash_dualflexpress_divthree-p007.35.cnf

c --- [ banner ] -------------------------------------------------------------
c 
c CaDiCaL SAT Solver
c Copyright (c) 2016-2024
c A. Biere, M. Fleury, N. Froleyks, K. Fazekas, F. Pollitt, T. Faller
c JKU Linz, University of Freiburg, TU Wien
c 
c Version 2.1.3 5296d3d2a9bf48c154ab2acb5e44625776d821bf
c g++ (Gentoo 12.3.1_p20230526 p2) 12.3.1 20230526 -Wall -Wextra -O3 -DNDEBUG
c Sat Aug 9 07:26:21 PDT 2025 Linux cedar2.int.cedar.computecanada.ca 5.14.0-362.24.2.el9_3.x86_64 x86_64
c 
c --- [ limit ] --------------------------------------------------------------
c 
c setting time limit to 1600 seconds real time (due to '-t 1600')
c 
c --- [ parsing input ] ------------------------------------------------------
c 
c reading DIMACS file from './data/cnfs//qspiflash_dualflexpress_divthree-p007/qspiflash_dualflexpress_divthree-p007.35.cnf'
c opening file to read './data/cnfs//qspiflash_dualflexpress_divthree-p007/qspiflash_dualflexpress_divthree-p007.35.cnf'
c found 'p cnf 106434 309974' header
c parsed 309974 clauses in 0.05 seconds process time
c 
c --- [ options ] ------------------------------------------------------------
c 
c   --compact=false                (different from default 'true')
c   --decompose=false              (different from default 'true')
c   --deduplicate=false            (different from default 'true')
c   --elim=false                   (different from default 'true')
c   --probe=false                  (different from default 'true')
c   --reduce=false                 (different from default 'true')
c   --subsume=false                (different from default 'true')
c   --ternary=false                (different from default 'true')
c   --transred=false               (different from default 'true')
c   --vivify=false                 (different from default 'true')
c 
c --- [ solving ] ------------------------------------------------------------
c 
c time measured in process time since initialization
c 
c  seconds  reductions  redundant  irredundant
c         MB    restarts       trail       variables
c          level   conflicts       glue         remaining
c 
c *  0.05 51  0 0   0    0    0  0% 0 291003 94091 88%
c {  0.08 53  0 0   0    0    0  0% 0 291003 94091 88%
c i  0.08 53  1 0   0    1    0 13% 0 291003 94078 88%
c i  0.08 53  1 0   0    2    0 14% 0 291003 93924 88%
c i  0.08 53 24 0   0    8    4 16% 2 291003 93884 88%
c i  0.08 53 11 0   0   23   14 20% 2 291003 93881 88%
c i  0.10 53 24 0   5  174  154 21% 4 291003 93866 88%
c i  0.11 54 20 0   5  500  444 20% 3 291003 93865 88%
c i  0.14 54 33 0  28  820  737 24% 3 291003 93856 88%
c }  0.17 54 32 0  31 1008  897 24% 3 291003 93856 88%
c [  0.17 54  0 0  31 1008  897  0% 0 291003 93856 88%
c O  0.18 54 969 0  31 1009  898 97% 2 291003 93856 88%
c i  0.18 54 942 0  31 1013  901 96% 2 291003 93838 88%
c i  0.18 54 937 0  31 1016  903 96% 1 291003 93835 88%
c i  0.40 54 542 0  32 2772 2542 65% 7 291003 93826 88%
c ]  0.43 55 483 0  32 3008 2754 61% 8 291003 93826 88%
c {  0.43 55 32 0  32 3008 2754 24% 3 291003 93826 88%
c F  0.44 55 32 0  32 3011 2757 24% 3 291003 93826 88%
c i  0.45 55 33 0  37 3107 2840 25% 3 291003 93822 88%
c i  0.45 55 33 0  43 3126 2857 25% 3 291003 93820 88%
c 
c  seconds  reductions  redundant  irredundant
c         MB    restarts       trail       variables
c          level   conflicts       glue         remaining
c 
c i  0.45 55 33 0  43 3127 2857 25% 3 291003 93819 88%
c i  0.45 55 32 0  46 3137 2865 25% 3 291003 93810 88%
c i  0.45 55 32 0  46 3138 2865 25% 3 291003 93803 88%
c i  0.45 55 32 0  48 3147 2872 25% 3 291003 93780 88%
c i  0.45 55 32 0  48 3148 2872 25% 3 291003 93773 88%
c i  0.46 55 32 0  54 3193 2912 25% 3 291003 93769 88%
c i  0.46 55 31 0  85 3297 3005 24% 3 291003 93765 88%
c i  0.48 55 30 0 121 3445 3137 23% 4 291003 93761 88%
c i  0.48 55 30 0 121 3451 3142 23% 4 291003 93757 88%
c i  0.50 55 30 0 149 3590 3266 23% 4 291003 93751 88%
c i  0.51 55 30 0 161 3635 3306 23% 4 291003 93745 88%
c i  0.51 55 30 0 162 3639 3309 23% 4 291003 93740 88%
c i  0.51 55 30 0 162 3642 3310 23% 4 291003 93680 88%
c i  0.51 55 30 0 162 3646 3312 23% 4 291003 93649 88%
c i  0.52 55 30 0 173 3701 3363 23% 4 291003 93640 88%
c i  0.52 55 30 0 174 3715 3375 23% 4 291003 93632 88%
c i  0.52 55 30 0 174 3717 3376 23% 4 291003 93625 88%
c i  0.53 55 29 0 180 3795 3448 23% 4 291003 93621 88%
c i  0.54 55 29 0 190 3850 3494 23% 4 291003 93617 88%
c i  0.56 55 29 0 212 3962 3588 23% 4 291003 93610 88%
c 
c  seconds  reductions  redundant  irredundant
c         MB    restarts       trail       variables
c          level   conflicts       glue         remaining
c 
c i  0.58 55 29 0 224 4072 3675 23% 4 291003 93602 88%
c i  0.58 55 29 0 224 4074 3676 23% 4 291003 93594 88%
c i  0.58 55 29 0 224 4076 3677 23% 4 291003 93586 88%
c i  0.59 55 30 0 226 4211 3799 23% 4 291003 93585 88%
... skipped 36 lines ...
c i  2.47 58 31 0 720 15162 13485 24% 5 291003 93284 88%
c i  2.48 58 30 0 730 15202 13518 24% 5 291003 93280 88%
c i  2.52 58 30 0 764 15325 13629 24% 5 291003 93265 88%
c i  2.56 58 30 0 787 15429 13720 24% 5 291003 93261 88%
c i  2.58 58 30 0 802 15494 13767 24% 5 291003 93242 88%
c 
c  seconds  reductions    redundant  irredundant
c         MB    restarts         trail       variables
c          level    conflicts        glue         remaining
c 
c i  2.59 58 30 0 809 15529 13787 24% 5 291003 93231 88%
c i  2.61 58 30 0 817 15581 13833 24% 5 291003 93222 88%
c i  2.61 58 30 0 817 15591 13840 24% 5 291003 93200 88%
c i  2.61 58 30 0 817 15596 13844 24% 5 291003 93187 88%
c i  2.70 58 29 0 875 15969 14180 24% 5 291003 93139 88%
c i  2.70 58 29 0 875 15970 14180 24% 5 291003 93135 88%
c i  2.75 58 29 0 906 16163 14338 24% 5 291003 86518 81%
c i  2.76 58 29 0 916 16234 14388 24% 5 291003 86514 81%
c i  2.77 58 29 0 918 16249 14402 24% 5 291003 86236 81%
c i  2.79 58 29 0 940 16406 14540 24% 5 291003 86161 81%
c i  2.82 58 28 0 940 16571 14689 25% 5 291003 86159 81%
c i  2.85 58 29 0 969 16698 14803 25% 5 291003 86152 81%
c i  2.85 58 29 0 972 16707 14811 25% 5 291003 86143 81%
c i  2.93 58 29 0 1017 17153 15221 26% 5 291003 84618 80%
c i  2.99 58 28 0 1056 17671 15701 26% 5 291003 84611 79%
c i  3.02 58 28 0 1068 17875 15888 27% 5 291003 84427 79%
c i  3.10 59 27 0 1135 18244 16227 27% 5 291003 84419 79%
c i  3.15 59 27 0 1176 18613 16573 27% 5 291003 84412 79%
c i  3.18 59 27 0 1210 18741 16693 27% 5 291003 84211 79%
c i  3.18 59 27 0 1210 18747 16696 27% 5 291003 84207 79%
c 
c  seconds  reductions     redundant  irredundant
c         MB    restarts          trail       variables
c          level     conflicts        glue         remaining
c 
c i  3.18 59 27 0 1210 18748 16696 27% 5 291003 84056 79%
c i  3.18 59 27 0 1210 18766 16711 27% 5 291003 83154 78%
c i  3.18 59 27 0 1210 18802 16726 27% 5 291003 80603 76%
c i  3.28 59 26 0 1246 19455 17328 28% 5 291003 80476 76%
c i  3.28 59 26 0 1251 19517 17384 28% 5 291003 80442 76%
c i  3.32 59 26 0 1257 19970 17783 28% 5 291003 80411 76%
c i  3.36 59 25 0 1274 20310 18031 28% 5 291003 80400 76%
c i  3.36 59 25 0 1274 20348 18057 28% 5 291003 80396 76%
c i  3.40 59 25 0 1296 20705 18361 29% 5 291003 80389 76%
c i  3.41 59 25 0 1296 20793 18407 29% 5 291003 80376 76%
c i  3.41 59 25 0 1301 20845 18453 29% 5 291003 79828 75%
c }  3.43 59 24 0 1305 21015 18563 29% 5 291003 77988 73%
c 0  3.43 59 24 0 1305 21015 18563 29% 5 291003 77988 73%
c 
c --- [ result ] -------------------------------------------------------------
c 
s UNSATISFIABLE
c 
c --- [ run-time profiling ] -------------------------------------------------
c 
c process time taken by individual solving procedures
c (percentage relative to process time for solving)
c 
c         3.37  100.00% search
c         1.73   51.37% unstable
c         1.62   47.95% stable
c         0.05    1.55% parse
c         0.02    0.67% lucky
c         0.00    0.00% simplify
c   =================================
c         3.37   98.45% solve
c 
c last line shows process time for solving
c (percentage relative to total process time)
c 
c --- [ statistics ] ---------------------------------------------------------
c 
c chronological:              7022        33.41 %  of conflicts
c conflicts:                 21015      6227.40    per second
c decisions:                 64356     19070.69    per second
c fixed:                     28412        26.69 %  of all variables
c learned:                   20219        96.21 %  per conflict
c learned_lits:             886519       100.00 %  learned literals
c minimized:                     0         0.00 %  learned literals
c shrunken:                 122716        13.84 %  learned literals
c minishrunken:             206216        23.26 %  learned literals
c otfs:                        142         0.68 %  of conflict
c propagations:           50501486        14.97 M  per second
c rephased:                      5      4203.00    interval
c restarts:                   1305        16.10    interval
c stabilizing:                   2        47.59 %  of conflicts
c subsumed:                   1556         0.50 %  of all clauses
c strengthened:                141         0.05 %  of all clauses
c 
c seconds are measured in process time for solving
c 
c --- [ resources ] ----------------------------------------------------------
c 
c total process time since initialization:         3.43    seconds
c total real time since initialization:            3.46    seconds
c maximum resident set size of process:           57.18    MB
c 
c --- [ shutting down ] ------------------------------------------------------
c 
c exit 20
